%%MatrixMarket matrix coordinate integer general
% Field: GF(2)
% (4,8) QRC generated from
% A = [4 0 3 5 0 5 3 4 6 6 0 0 2 1 6 1]
% B = [4 0 4 0 1 1 0 0 7 2 4 5 3 0 5 4]
128 256 1024
1 5 1
1 33 1
1 68 1
1 102 1
1 133 1
1 137 1
1 149 1
1 153 1
2 6 1
2 34 1
2 69 1
2 103 1
2 134 1
2 138 1
2 150 1
2 154 1
3 7 1
3 35 1
3 70 1
3 104 1
3 135 1
3 139 1
3 151 1
3 155 1
4 8 1
4 36 1
4 71 1
4 97 1
4 136 1
4 140 1
4 152 1
4 156 1
5 1 1
5 37 1
5 72 1
5 98 1
5 129 1
5 141 1
5 145 1
5 157 1
6 2 1
6 38 1
6 65 1
6 99 1
6 130 1
6 142 1
6 146 1
6 158 1
7 3 1
7 39 1
7 66 1
7 100 1
7 131 1
7 143 1
7 147 1
7 159 1
8 4 1
8 40 1
8 67 1
8 101 1
8 132 1
8 144 1
8 148 1
8 160 1
9 13 1
9 41 1
9 76 1
9 110 1
9 130 1
9 138 1
9 145 1
9 153 1
10 14 1
10 42 1
10 77 1
10 111 1
10 131 1
10 139 1
10 146 1
10 154 1
11 15 1
11 43 1
11 78 1
11 112 1
11 132 1
11 140 1
11 147 1
11 155 1
12 16 1
12 44 1
12 79 1
12 105 1
12 133 1
12 141 1
12 148 1
12 156 1
13 9 1
13 45 1
13 80 1
13 106 1
13 134 1
13 142 1
13 149 1
13 157 1
14 10 1
14 46 1
14 73 1
14 107 1
14 135 1
14 143 1
14 150 1
14 158 1
15 11 1
15 47 1
15 74 1
15 108 1
15 136 1
15 144 1
15 151 1
15 159 1
16 12 1
16 48 1
16 75 1
16 109 1
16 129 1
16 137 1
16 152 1
16 160 1
17 21 1
17 49 1
17 84 1
17 118 1
17 136 1
17 139 1
17 149 1
17 158 1
18 22 1
18 50 1
18 85 1
18 119 1
18 129 1
18 140 1
18 150 1
18 159 1
19 23 1
19 51 1
19 86 1
19 120 1
19 130 1
19 141 1
19 151 1
19 160 1
20 24 1
20 52 1
20 87 1
20 113 1
20 131 1
20 142 1
20 152 1
20 153 1
21 17 1
21 53 1
21 88 1
21 114 1
21 132 1
21 143 1
21 145 1
21 154 1
22 18 1
22 54 1
22 81 1
22 115 1
22 133 1
22 144 1
22 146 1
22 155 1
23 19 1
23 55 1
23 82 1
23 116 1
23 134 1
23 137 1
23 147 1
23 156 1
24 20 1
24 56 1
24 83 1
24 117 1
24 135 1
24 138 1
24 148 1
24 157 1
25 29 1
25 57 1
25 92 1
25 126 1
25 132 1
25 137 1
25 150 1
25 157 1
26 30 1
26 58 1
26 93 1
26 127 1
26 133 1
26 138 1
26 151 1
26 158 1
27 31 1
27 59 1
27 94 1
27 128 1
27 134 1
27 139 1
27 152 1
27 159 1
28 32 1
28 60 1
28 95 1
28 121 1
28 135 1
28 140 1
28 145 1
28 160 1
29 25 1
29 61 1
29 96 1
29 122 1
29 136 1
29 141 1
29 146 1
29 153 1
30 26 1
30 62 1
30 89 1
30 123 1
30 129 1
30 142 1
30 147 1
30 154 1
31 27 1
31 63 1
31 90 1
31 124 1
31 130 1
31 143 1
31 148 1
31 155 1
32 28 1
32 64 1
32 91 1
32 125 1
32 131 1
32 144 1
32 149 1
32 156 1
33 1 1
33 38 1
33 68 1
33 101 1
33 165 1
33 169 1
33 181 1
33 185 1
34 2 1
34 39 1
34 69 1
34 102 1
34 166 1
34 170 1
34 182 1
34 186 1
35 3 1
35 40 1
35 70 1
35 103 1
35 167 1
35 171 1
35 183 1
35 187 1
36 4 1
36 33 1
36 71 1
36 104 1
36 168 1
36 172 1
36 184 1
36 188 1
37 5 1
37 34 1
37 72 1
37 97 1
37 161 1
37 173 1
37 177 1
37 189 1
38 6 1
38 35 1
38 65 1
38 98 1
38 162 1
38 174 1
38 178 1
38 190 1
39 7 1
39 36 1
39 66 1
39 99 1
39 163 1
39 175 1
39 179 1
39 191 1
40 8 1
40 37 1
40 67 1
40 100 1
40 164 1
40 176 1
40 180 1
40 192 1
41 9 1
41 46 1
41 76 1
41 109 1
41 162 1
41 170 1
41 177 1
41 185 1
42 10 1
42 47 1
42 77 1
42 110 1
42 163 1
42 171 1
42 178 1
42 186 1
43 11 1
43 48 1
43 78 1
43 111 1
43 164 1
43 172 1
43 179 1
43 187 1
44 12 1
44 41 1
44 79 1
44 112 1
44 165 1
44 173 1
44 180 1
44 188 1
45 13 1
45 42 1
45 80 1
45 105 1
45 166 1
45 174 1
45 181 1
45 189 1
46 14 1
46 43 1
46 73 1
46 106 1
46 167 1
46 175 1
46 182 1
46 190 1
47 15 1
47 44 1
47 74 1
47 107 1
47 168 1
47 176 1
47 183 1
47 191 1
48 16 1
48 45 1
48 75 1
48 108 1
48 161 1
48 169 1
48 184 1
48 192 1
49 17 1
49 54 1
49 84 1
49 117 1
49 168 1
49 171 1
49 181 1
49 190 1
50 18 1
50 55 1
50 85 1
50 118 1
50 161 1
50 172 1
50 182 1
50 191 1
51 19 1
51 56 1
51 86 1
51 119 1
51 162 1
51 173 1
51 183 1
51 192 1
52 20 1
52 49 1
52 87 1
52 120 1
52 163 1
52 174 1
52 184 1
52 185 1
53 21 1
53 50 1
53 88 1
53 113 1
53 164 1
53 175 1
53 177 1
53 186 1
54 22 1
54 51 1
54 81 1
54 114 1
54 165 1
54 176 1
54 178 1
54 187 1
55 23 1
55 52 1
55 82 1
55 115 1
55 166 1
55 169 1
55 179 1
55 188 1
56 24 1
56 53 1
56 83 1
56 116 1
56 167 1
56 170 1
56 180 1
56 189 1
57 25 1
57 62 1
57 92 1
57 125 1
57 164 1
57 169 1
57 182 1
57 189 1
58 26 1
58 63 1
58 93 1
58 126 1
58 165 1
58 170 1
58 183 1
58 190 1
59 27 1
59 64 1
59 94 1
59 127 1
59 166 1
59 171 1
59 184 1
59 191 1
60 28 1
60 57 1
60 95 1
60 128 1
60 167 1
60 172 1
60 177 1
60 192 1
61 29 1
61 58 1
61 96 1
61 121 1
61 168 1
61 173 1
61 178 1
61 185 1
62 30 1
62 59 1
62 89 1
62 122 1
62 161 1
62 174 1
62 179 1
62 186 1
63 31 1
63 60 1
63 90 1
63 123 1
63 162 1
63 175 1
63 180 1
63 187 1
64 32 1
64 61 1
64 91 1
64 124 1
64 163 1
64 176 1
64 181 1
64 188 1
65 7 1
65 39 1
65 65 1
65 97 1
65 197 1
65 201 1
65 213 1
65 217 1
66 8 1
66 40 1
66 66 1
66 98 1
66 198 1
66 202 1
66 214 1
66 218 1
67 1 1
67 33 1
67 67 1
67 99 1
67 199 1
67 203 1
67 215 1
67 219 1
68 2 1
68 34 1
68 68 1
68 100 1
68 200 1
68 204 1
68 216 1
68 220 1
69 3 1
69 35 1
69 69 1
69 101 1
69 193 1
69 205 1
69 209 1
69 221 1
70 4 1
70 36 1
70 70 1
70 102 1
70 194 1
70 206 1
70 210 1
70 222 1
71 5 1
71 37 1
71 71 1
71 103 1
71 195 1
71 207 1
71 211 1
71 223 1
72 6 1
72 38 1
72 72 1
72 104 1
72 196 1
72 208 1
72 212 1
72 224 1
73 15 1
73 47 1
73 73 1
73 105 1
73 194 1
73 202 1
73 209 1
73 217 1
74 16 1
74 48 1
74 74 1
74 106 1
74 195 1
74 203 1
74 210 1
74 218 1
75 9 1
75 41 1
75 75 1
75 107 1
75 196 1
75 204 1
75 211 1
75 219 1
76 10 1
76 42 1
76 76 1
76 108 1
76 197 1
76 205 1
76 212 1
76 220 1
77 11 1
77 43 1
77 77 1
77 109 1
77 198 1
77 206 1
77 213 1
77 221 1
78 12 1
78 44 1
78 78 1
78 110 1
78 199 1
78 207 1
78 214 1
78 222 1
79 13 1
79 45 1
79 79 1
79 111 1
79 200 1
79 208 1
79 215 1
79 223 1
80 14 1
80 46 1
80 80 1
80 112 1
80 193 1
80 201 1
80 216 1
80 224 1
81 23 1
81 55 1
81 81 1
81 113 1
81 200 1
81 203 1
81 213 1
81 222 1
82 24 1
82 56 1
82 82 1
82 114 1
82 193 1
82 204 1
82 214 1
82 223 1
83 17 1
83 49 1
83 83 1
83 115 1
83 194 1
83 205 1
83 215 1
83 224 1
84 18 1
84 50 1
84 84 1
84 116 1
84 195 1
84 206 1
84 216 1
84 217 1
85 19 1
85 51 1
85 85 1
85 117 1
85 196 1
85 207 1
85 209 1
85 218 1
86 20 1
86 52 1
86 86 1
86 118 1
86 197 1
86 208 1
86 210 1
86 219 1
87 21 1
87 53 1
87 87 1
87 119 1
87 198 1
87 201 1
87 211 1
87 220 1
88 22 1
88 54 1
88 88 1
88 120 1
88 199 1
88 202 1
88 212 1
88 221 1
89 31 1
89 63 1
89 89 1
89 121 1
89 196 1
89 201 1
89 214 1
89 221 1
90 32 1
90 64 1
90 90 1
90 122 1
90 197 1
90 202 1
90 215 1
90 222 1
91 25 1
91 57 1
91 91 1
91 123 1
91 198 1
91 203 1
91 216 1
91 223 1
92 26 1
92 58 1
92 92 1
92 124 1
92 199 1
92 204 1
92 209 1
92 224 1
93 27 1
93 59 1
93 93 1
93 125 1
93 200 1
93 205 1
93 210 1
93 217 1
94 28 1
94 60 1
94 94 1
94 126 1
94 193 1
94 206 1
94 211 1
94 218 1
95 29 1
95 61 1
95 95 1
95 127 1
95 194 1
95 207 1
95 212 1
95 219 1
96 30 1
96 62 1
96 96 1
96 128 1
96 195 1
96 208 1
96 213 1
96 220 1
97 3 1
97 34 1
97 71 1
97 98 1
97 229 1
97 233 1
97 245 1
97 249 1
98 4 1
98 35 1
98 72 1
98 99 1
98 230 1
98 234 1
98 246 1
98 250 1
99 5 1
99 36 1
99 65 1
99 100 1
99 231 1
99 235 1
99 247 1
99 251 1
100 6 1
100 37 1
100 66 1
100 101 1
100 232 1
100 236 1
100 248 1
100 252 1
101 7 1
101 38 1
101 67 1
101 102 1
101 225 1
101 237 1
101 241 1
101 253 1
102 8 1
102 39 1
102 68 1
102 103 1
102 226 1
102 238 1
102 242 1
102 254 1
103 1 1
103 40 1
103 69 1
103 104 1
103 227 1
103 239 1
103 243 1
103 255 1
104 2 1
104 33 1
104 70 1
104 97 1
104 228 1
104 240 1
104 244 1
104 256 1
105 11 1
105 42 1
105 79 1
105 106 1
105 226 1
105 234 1
105 241 1
105 249 1
106 12 1
106 43 1
106 80 1
106 107 1
106 227 1
106 235 1
106 242 1
106 250 1
107 13 1
107 44 1
107 73 1
107 108 1
107 228 1
107 236 1
107 243 1
107 251 1
108 14 1
108 45 1
108 74 1
108 109 1
108 229 1
108 237 1
108 244 1
108 252 1
109 15 1
109 46 1
109 75 1
109 110 1
109 230 1
109 238 1
109 245 1
109 253 1
110 16 1
110 47 1
110 76 1
110 111 1
110 231 1
110 239 1
110 246 1
110 254 1
111 9 1
111 48 1
111 77 1
111 112 1
111 232 1
111 240 1
111 247 1
111 255 1
112 10 1
112 41 1
112 78 1
112 105 1
112 225 1
112 233 1
112 248 1
112 256 1
113 19 1
113 50 1
113 87 1
113 114 1
113 232 1
113 235 1
113 245 1
113 254 1
114 20 1
114 51 1
114 88 1
114 115 1
114 225 1
114 236 1
114 246 1
114 255 1
115 21 1
115 52 1
115 81 1
115 116 1
115 226 1
115 237 1
115 247 1
115 256 1
116 22 1
116 53 1
116 82 1
116 117 1
116 227 1
116 238 1
116 248 1
116 249 1
117 23 1
117 54 1
117 83 1
117 118 1
117 228 1
117 239 1
117 241 1
117 250 1
118 24 1
118 55 1
118 84 1
118 119 1
118 229 1
118 240 1
118 242 1
118 251 1
119 17 1
119 56 1
119 85 1
119 120 1
119 230 1
119 233 1
119 243 1
119 252 1
120 18 1
120 49 1
120 86 1
120 113 1
120 231 1
120 234 1
120 244 1
120 253 1
121 27 1
121 58 1
121 95 1
121 122 1
121 228 1
121 233 1
121 246 1
121 253 1
122 28 1
122 59 1
122 96 1
122 123 1
122 229 1
122 234 1
122 247 1
122 254 1
123 29 1
123 60 1
123 89 1
123 124 1
123 230 1
123 235 1
123 248 1
123 255 1
124 30 1
124 61 1
124 90 1
124 125 1
124 231 1
124 236 1
124 241 1
124 256 1
125 31 1
125 62 1
125 91 1
125 126 1
125 232 1
125 237 1
125 242 1
125 249 1
126 32 1
126 63 1
126 92 1
126 127 1
126 225 1
126 238 1
126 243 1
126 250 1
127 25 1
127 64 1
127 93 1
127 128 1
127 226 1
127 239 1
127 244 1
127 251 1
128 26 1
128 57 1
128 94 1
128 121 1
128 227 1
128 240 1
128 245 1
128 252 1
