%%MatrixMarket matrix coordinate integer general
% Field: GF(2)
% (4,8) QRC generated from
% A = [4 0 3 5 0 5 3 4 6 6 0 0 2 1 6 1]
% B = [4 0 4 0 1 1 0 0 7 2 4 5 3 0 5 4]
128 256 1024
1 5 1
1 16 1
1 18 1
1 30 1
1 133 1
1 161 1
1 195 1
1 231 1
2 6 1
2 9 1
2 19 1
2 31 1
2 134 1
2 162 1
2 196 1
2 232 1
3 7 1
3 10 1
3 20 1
3 32 1
3 135 1
3 163 1
3 197 1
3 225 1
4 8 1
4 11 1
4 21 1
4 25 1
4 136 1
4 164 1
4 198 1
4 226 1
5 1 1
5 12 1
5 22 1
5 26 1
5 129 1
5 165 1
5 199 1
5 227 1
6 2 1
6 13 1
6 23 1
6 27 1
6 130 1
6 166 1
6 200 1
6 228 1
7 3 1
7 14 1
7 24 1
7 28 1
7 131 1
7 167 1
7 193 1
7 229 1
8 4 1
8 15 1
8 17 1
8 29 1
8 132 1
8 168 1
8 194 1
8 230 1
9 1 1
9 16 1
9 23 1
9 25 1
9 141 1
9 169 1
9 203 1
9 239 1
10 2 1
10 9 1
10 24 1
10 26 1
10 142 1
10 170 1
10 204 1
10 240 1
11 3 1
11 10 1
11 17 1
11 27 1
11 143 1
11 171 1
11 205 1
11 233 1
12 4 1
12 11 1
12 18 1
12 28 1
12 144 1
12 172 1
12 206 1
12 234 1
13 5 1
13 12 1
13 19 1
13 29 1
13 137 1
13 173 1
13 207 1
13 235 1
14 6 1
14 13 1
14 20 1
14 30 1
14 138 1
14 174 1
14 208 1
14 236 1
15 7 1
15 14 1
15 21 1
15 31 1
15 139 1
15 175 1
15 201 1
15 237 1
16 8 1
16 15 1
16 22 1
16 32 1
16 140 1
16 176 1
16 202 1
16 238 1
17 5 1
17 9 1
17 21 1
17 28 1
17 149 1
17 177 1
17 211 1
17 247 1
18 6 1
18 10 1
18 22 1
18 29 1
18 150 1
18 178 1
18 212 1
18 248 1
19 7 1
19 11 1
19 23 1
19 30 1
19 151 1
19 179 1
19 213 1
19 241 1
20 8 1
20 12 1
20 24 1
20 31 1
20 152 1
20 180 1
20 214 1
20 242 1
21 1 1
21 13 1
21 17 1
21 32 1
21 145 1
21 181 1
21 215 1
21 243 1
22 2 1
22 14 1
22 18 1
22 25 1
22 146 1
22 182 1
22 216 1
22 244 1
23 3 1
23 15 1
23 19 1
23 26 1
23 147 1
23 183 1
23 209 1
23 245 1
24 4 1
24 16 1
24 20 1
24 27 1
24 148 1
24 184 1
24 210 1
24 246 1
25 1 1
25 9 1
25 20 1
25 29 1
25 157 1
25 185 1
25 219 1
25 255 1
26 2 1
26 10 1
26 21 1
26 30 1
26 158 1
26 186 1
26 220 1
26 256 1
27 3 1
27 11 1
27 22 1
27 31 1
27 159 1
27 187 1
27 221 1
27 249 1
28 4 1
28 12 1
28 23 1
28 32 1
28 160 1
28 188 1
28 222 1
28 250 1
29 5 1
29 13 1
29 24 1
29 25 1
29 153 1
29 189 1
29 223 1
29 251 1
30 6 1
30 14 1
30 17 1
30 26 1
30 154 1
30 190 1
30 224 1
30 252 1
31 7 1
31 15 1
31 18 1
31 27 1
31 155 1
31 191 1
31 217 1
31 253 1
32 8 1
32 16 1
32 19 1
32 28 1
32 156 1
32 192 1
32 218 1
32 254 1
33 37 1
33 48 1
33 50 1
33 62 1
33 129 1
33 164 1
33 195 1
33 232 1
34 38 1
34 41 1
34 51 1
34 63 1
34 130 1
34 165 1
34 196 1
34 225 1
35 39 1
35 42 1
35 52 1
35 64 1
35 131 1
35 166 1
35 197 1
35 226 1
36 40 1
36 43 1
36 53 1
36 57 1
36 132 1
36 167 1
36 198 1
36 227 1
37 33 1
37 44 1
37 54 1
37 58 1
37 133 1
37 168 1
37 199 1
37 228 1
38 34 1
38 45 1
38 55 1
38 59 1
38 134 1
38 161 1
38 200 1
38 229 1
39 35 1
39 46 1
39 56 1
39 60 1
39 135 1
39 162 1
39 193 1
39 230 1
40 36 1
40 47 1
40 49 1
40 61 1
40 136 1
40 163 1
40 194 1
40 231 1
41 33 1
41 48 1
41 55 1
41 57 1
41 137 1
41 172 1
41 203 1
41 240 1
42 34 1
42 41 1
42 56 1
42 58 1
42 138 1
42 173 1
42 204 1
42 233 1
43 35 1
43 42 1
43 49 1
43 59 1
43 139 1
43 174 1
43 205 1
43 234 1
44 36 1
44 43 1
44 50 1
44 60 1
44 140 1
44 175 1
44 206 1
44 235 1
45 37 1
45 44 1
45 51 1
45 61 1
45 141 1
45 176 1
45 207 1
45 236 1
46 38 1
46 45 1
46 52 1
46 62 1
46 142 1
46 169 1
46 208 1
46 237 1
47 39 1
47 46 1
47 53 1
47 63 1
47 143 1
47 170 1
47 201 1
47 238 1
48 40 1
48 47 1
48 54 1
48 64 1
48 144 1
48 171 1
48 202 1
48 239 1
49 37 1
49 41 1
49 53 1
49 60 1
49 145 1
49 180 1
49 211 1
49 248 1
50 38 1
50 42 1
50 54 1
50 61 1
50 146 1
50 181 1
50 212 1
50 241 1
51 39 1
51 43 1
51 55 1
51 62 1
51 147 1
51 182 1
51 213 1
51 242 1
52 40 1
52 44 1
52 56 1
52 63 1
52 148 1
52 183 1
52 214 1
52 243 1
53 33 1
53 45 1
53 49 1
53 64 1
53 149 1
53 184 1
53 215 1
53 244 1
54 34 1
54 46 1
54 50 1
54 57 1
54 150 1
54 177 1
54 216 1
54 245 1
55 35 1
55 47 1
55 51 1
55 58 1
55 151 1
55 178 1
55 209 1
55 246 1
56 36 1
56 48 1
56 52 1
56 59 1
56 152 1
56 179 1
56 210 1
56 247 1
57 33 1
57 41 1
57 52 1
57 61 1
57 153 1
57 188 1
57 219 1
57 256 1
58 34 1
58 42 1
58 53 1
58 62 1
58 154 1
58 189 1
58 220 1
58 249 1
59 35 1
59 43 1
59 54 1
59 63 1
59 155 1
59 190 1
59 221 1
59 250 1
60 36 1
60 44 1
60 55 1
60 64 1
60 156 1
60 191 1
60 222 1
60 251 1
61 37 1
61 45 1
61 56 1
61 57 1
61 157 1
61 192 1
61 223 1
61 252 1
62 38 1
62 46 1
62 49 1
62 58 1
62 158 1
62 185 1
62 224 1
62 253 1
63 39 1
63 47 1
63 50 1
63 59 1
63 159 1
63 186 1
63 217 1
63 254 1
64 40 1
64 48 1
64 51 1
64 60 1
64 160 1
64 187 1
64 218 1
64 255 1
65 69 1
65 80 1
65 82 1
65 94 1
65 134 1
65 166 1
65 193 1
65 227 1
66 70 1
66 73 1
66 83 1
66 95 1
66 135 1
66 167 1
66 194 1
66 228 1
67 71 1
67 74 1
67 84 1
67 96 1
67 136 1
67 168 1
67 195 1
67 229 1
68 72 1
68 75 1
68 85 1
68 89 1
68 129 1
68 161 1
68 196 1
68 230 1
69 65 1
69 76 1
69 86 1
69 90 1
69 130 1
69 162 1
69 197 1
69 231 1
70 66 1
70 77 1
70 87 1
70 91 1
70 131 1
70 163 1
70 198 1
70 232 1
71 67 1
71 78 1
71 88 1
71 92 1
71 132 1
71 164 1
71 199 1
71 225 1
72 68 1
72 79 1
72 81 1
72 93 1
72 133 1
72 165 1
72 200 1
72 226 1
73 65 1
73 80 1
73 87 1
73 89 1
73 142 1
73 174 1
73 201 1
73 235 1
74 66 1
74 73 1
74 88 1
74 90 1
74 143 1
74 175 1
74 202 1
74 236 1
75 67 1
75 74 1
75 81 1
75 91 1
75 144 1
75 176 1
75 203 1
75 237 1
76 68 1
76 75 1
76 82 1
76 92 1
76 137 1
76 169 1
76 204 1
76 238 1
77 69 1
77 76 1
77 83 1
77 93 1
77 138 1
77 170 1
77 205 1
77 239 1
78 70 1
78 77 1
78 84 1
78 94 1
78 139 1
78 171 1
78 206 1
78 240 1
79 71 1
79 78 1
79 85 1
79 95 1
79 140 1
79 172 1
79 207 1
79 233 1
80 72 1
80 79 1
80 86 1
80 96 1
80 141 1
80 173 1
80 208 1
80 234 1
81 69 1
81 73 1
81 85 1
81 92 1
81 150 1
81 182 1
81 209 1
81 243 1
82 70 1
82 74 1
82 86 1
82 93 1
82 151 1
82 183 1
82 210 1
82 244 1
83 71 1
83 75 1
83 87 1
83 94 1
83 152 1
83 184 1
83 211 1
83 245 1
84 72 1
84 76 1
84 88 1
84 95 1
84 145 1
84 177 1
84 212 1
84 246 1
85 65 1
85 77 1
85 81 1
85 96 1
85 146 1
85 178 1
85 213 1
85 247 1
86 66 1
86 78 1
86 82 1
86 89 1
86 147 1
86 179 1
86 214 1
86 248 1
87 67 1
87 79 1
87 83 1
87 90 1
87 148 1
87 180 1
87 215 1
87 241 1
88 68 1
88 80 1
88 84 1
88 91 1
88 149 1
88 181 1
88 216 1
88 242 1
89 65 1
89 73 1
89 84 1
89 93 1
89 158 1
89 190 1
89 217 1
89 251 1
90 66 1
90 74 1
90 85 1
90 94 1
90 159 1
90 191 1
90 218 1
90 252 1
91 67 1
91 75 1
91 86 1
91 95 1
91 160 1
91 192 1
91 219 1
91 253 1
92 68 1
92 76 1
92 87 1
92 96 1
92 153 1
92 185 1
92 220 1
92 254 1
93 69 1
93 77 1
93 88 1
93 89 1
93 154 1
93 186 1
93 221 1
93 255 1
94 70 1
94 78 1
94 81 1
94 90 1
94 155 1
94 187 1
94 222 1
94 256 1
95 71 1
95 79 1
95 82 1
95 91 1
95 156 1
95 188 1
95 223 1
95 249 1
96 72 1
96 80 1
96 83 1
96 92 1
96 157 1
96 189 1
96 224 1
96 250 1
97 101 1
97 112 1
97 114 1
97 126 1
97 132 1
97 165 1
97 193 1
97 232 1
98 102 1
98 105 1
98 115 1
98 127 1
98 133 1
98 166 1
98 194 1
98 225 1
99 103 1
99 106 1
99 116 1
99 128 1
99 134 1
99 167 1
99 195 1
99 226 1
100 104 1
100 107 1
100 117 1
100 121 1
100 135 1
100 168 1
100 196 1
100 227 1
101 97 1
101 108 1
101 118 1
101 122 1
101 136 1
101 161 1
101 197 1
101 228 1
102 98 1
102 109 1
102 119 1
102 123 1
102 129 1
102 162 1
102 198 1
102 229 1
103 99 1
103 110 1
103 120 1
103 124 1
103 130 1
103 163 1
103 199 1
103 230 1
104 100 1
104 111 1
104 113 1
104 125 1
104 131 1
104 164 1
104 200 1
104 231 1
105 97 1
105 112 1
105 119 1
105 121 1
105 140 1
105 173 1
105 201 1
105 240 1
106 98 1
106 105 1
106 120 1
106 122 1
106 141 1
106 174 1
106 202 1
106 233 1
107 99 1
107 106 1
107 113 1
107 123 1
107 142 1
107 175 1
107 203 1
107 234 1
108 100 1
108 107 1
108 114 1
108 124 1
108 143 1
108 176 1
108 204 1
108 235 1
109 101 1
109 108 1
109 115 1
109 125 1
109 144 1
109 169 1
109 205 1
109 236 1
110 102 1
110 109 1
110 116 1
110 126 1
110 137 1
110 170 1
110 206 1
110 237 1
111 103 1
111 110 1
111 117 1
111 127 1
111 138 1
111 171 1
111 207 1
111 238 1
112 104 1
112 111 1
112 118 1
112 128 1
112 139 1
112 172 1
112 208 1
112 239 1
113 101 1
113 105 1
113 117 1
113 124 1
113 148 1
113 181 1
113 209 1
113 248 1
114 102 1
114 106 1
114 118 1
114 125 1
114 149 1
114 182 1
114 210 1
114 241 1
115 103 1
115 107 1
115 119 1
115 126 1
115 150 1
115 183 1
115 211 1
115 242 1
116 104 1
116 108 1
116 120 1
116 127 1
116 151 1
116 184 1
116 212 1
116 243 1
117 97 1
117 109 1
117 113 1
117 128 1
117 152 1
117 177 1
117 213 1
117 244 1
118 98 1
118 110 1
118 114 1
118 121 1
118 145 1
118 178 1
118 214 1
118 245 1
119 99 1
119 111 1
119 115 1
119 122 1
119 146 1
119 179 1
119 215 1
119 246 1
120 100 1
120 112 1
120 116 1
120 123 1
120 147 1
120 180 1
120 216 1
120 247 1
121 97 1
121 105 1
121 116 1
121 125 1
121 156 1
121 189 1
121 217 1
121 256 1
122 98 1
122 106 1
122 117 1
122 126 1
122 157 1
122 190 1
122 218 1
122 249 1
123 99 1
123 107 1
123 118 1
123 127 1
123 158 1
123 191 1
123 219 1
123 250 1
124 100 1
124 108 1
124 119 1
124 128 1
124 159 1
124 192 1
124 220 1
124 251 1
125 101 1
125 109 1
125 120 1
125 121 1
125 160 1
125 185 1
125 221 1
125 252 1
126 102 1
126 110 1
126 113 1
126 122 1
126 153 1
126 186 1
126 222 1
126 253 1
127 103 1
127 111 1
127 114 1
127 123 1
127 154 1
127 187 1
127 223 1
127 254 1
128 104 1
128 112 1
128 115 1
128 124 1
128 155 1
128 188 1
128 224 1
128 255 1
